words_hard_train/8589.qaiger
aag 72 16 0 1 56
2
4
8
16
24
30
34
36
44
46
50
52
80
88
98
120
145
6 3 5
10 6 9
12 7 8
14 11 13
18 15 16
20 2 4
22 21 7
26 22 24
28 19 27
32 31 3
38 34 37
40 30 2
42 39 41
48 44 47
54 51 52
56 48 55
58 50 53
60 57 59
62 35 36
64 61 63
66 42 65
68 33 67
70 23 25
72 68 71
74 28 73
76 14 17
78 75 77
82 12 80
84 13 81
86 83 85
90 86 88
92 79 91
94 87 89
96 93 95
100 98 47
102 99 46
104 101 103
106 97 105
108 5 81
110 52 8
112 110 46
114 36 3
116 112 114
118 108 116
122 118 120
124 106 123
126 117 84
128 127 121
130 126 120
132 129 131
134 133 119
136 96 104
138 134 137
140 125 139
142 122 136
144 140 143
i0 2 y1[3]
i1 2 y1[4]
i2 2 y1[5]
i3 1 x1[5]
i4 1 x1[4]
i5 1 x1[3]
i6 1 x1[2]
i7 2 y1[2]
i8 1 x1[0]
i9 2 y1[0]
i10 1 x1[1]
i11 2 y1[1]
i12 2 y1[6]
i13 1 x1[6]
i14 1 x1[7]
i15 2 y1[7]
o0 bv[0]
c
simplified
  >
    add
      2 y1
      -39
    xor
      << 7
        2 y1
      1 x1
