words_hard_train/8589.qaiger.qdimacs
p cnf 72 169
a 8 12 44 15 17 49 22 25 0
e 1 2 3 4 5 6 7 9 10 11 13 14 16 18 19 20 21 23 24 26 27 28 29 30 31 32 33 34 35 36 37 38 39 40 41 42 43 45 46 47 48 50 51 52 53 54 55 56 57 58 59 60 61 62 63 64 65 66 67 68 69 70 71 72 0
1 2 3 0
-1 -3 0
-2 -3 0
-3 4 5 0
3 -5 0
-4 -5 0
3 -4 6 0
-3 -6 0
4 -6 0
5 6 7 0
-5 -7 0
-6 -7 0
7 -8 9 0
-7 -9 0
8 -9 0
-1 -2 10 0
1 -10 0
2 -10 0
10 3 11 0
-10 -11 0
-3 -11 0
-11 -12 13 0
11 -13 0
12 -13 0
9 13 14 0
-9 -14 0
-13 -14 0
15 1 16 0
-15 -16 0
-1 -16 0
-17 18 19 0
17 -19 0
-18 -19 0
-15 -1 20 0
15 -20 0
1 -20 0
19 20 21 0
-19 -21 0
-20 -21 0
-22 23 24 0
22 -24 0
-23 -24 0
25 -26 27 0
-25 -27 0
26 -27 0
-24 27 28 0
24 -28 0
-27 -28 0
-25 26 29 0
25 -29 0
-26 -29 0
28 29 30 0
-28 -30 0
-29 -30 0
17 -18 31 0
-17 -31 0
18 -31 0
30 31 32 0
-30 -32 0
-31 -32 0
-21 32 33 0
21 -33 0
-32 -33 0
16 33 34 0
-16 -34 0
-33 -34 0
11 12 35 0
-11 -35 0
-12 -35 0
-34 35 36 0
34 -36 0
-35 -36 0
-14 36 37 0
14 -37 0
-36 -37 0
-7 8 38 0
7 -38 0
-8 -38 0
37 38 39 0
-37 -39 0
-38 -39 0
-6 -40 41 0
6 -41 0
40 -41 0
6 40 42 0
-6 -42 0
-40 -42 0
41 42 43 0
-41 -43 0
-42 -43 0
-43 -44 45 0
43 -45 0
44 -45 0
39 45 46 0
-39 -46 0
-45 -46 0
43 44 47 0
-43 -47 0
-44 -47 0
46 47 48 0
-46 -48 0
-47 -48 0
-49 23 50 0
49 -50 0
-23 -50 0
49 -23 51 0
-49 -51 0
23 -51 0
50 51 52 0
-50 -52 0
-51 -52 0
48 52 53 0
-48 -53 0
-52 -53 0
2 40 54 0
-2 -54 0
-40 -54 0
-26 -4 55 0
26 -55 0
4 -55 0
-55 -23 56 0
55 -56 0
23 -56 0
-18 1 57 0
18 -57 0
-1 -57 0
-56 -57 58 0
56 -58 0
57 -58 0
-54 -58 59 0
54 -59 0
58 -59 0
-59 -60 61 0
59 -61 0
60 -61 0
-53 61 62 0
53 -62 0
-61 -62 0
58 -42 63 0
-58 -63 0
42 -63 0
63 60 64 0
-63 -64 0
-60 -64 0
-63 -60 65 0
63 -65 0
60 -65 0
64 65 66 0
-64 -66 0
-65 -66 0
66 59 67 0
-66 -67 0
-59 -67 0
-48 -52 68 0
48 -68 0
52 -68 0
-67 68 69 0
67 -69 0
-68 -69 0
62 69 70 0
-62 -70 0
-69 -70 0
-61 -68 71 0
61 -71 0
68 -71 0
-70 71 72 0
70 -72 0
-71 -72 0
-72 0
